NAME: random problem
TYPE: MTSP
COMMENT: MTSP problem for MRS UAV summer school
DIMENSION: 20
NUMBER_OF_ROBOTS: 2
START_TARGET_INDEXES: 1, 2
NEIGHBORHOOD_RADIUS: 2
EDGE_WEIGHT_TYPE: EUC_2D
NODE_COORD_SECTION
1 15.0 -21.0
2 -5.0 -25.0
3 -1.7 -1.8
4 -30.8 -29.9
5 10.3 -21.1
6 -7.7 -12.2
7 31.5 -6.5
8 2.7 5.1
9 21.4 3.4
10 -8.2 -20.2
11 -32.0 -11.4
12 17.5 -22.6
13 -33.2 -14.1
14 -14.6 -16.8
15 17.1 -10.3
16 39.3 -18.6
17 3.1 -9.0
18 -1.8 -4.8
19 -3.3 6.0
20 25.5 -4.5
EOF
